s = 33+1;
n = 5;
swap = 1;
% 33 instructions
% 6 registers
% https://github.com/google-deepmind/alphadev/blob/main/sort_functions_test.cc
perm_count = 120;
init_perm = 
 [| 5, 4, 3, 2, 1, 
  | 4, 5, 3, 2, 1, 
  | 4, 3, 5, 2, 1, 
  | 4, 3, 2, 5, 1, 
  | 4, 3, 2, 1, 5, 
  | 5, 3, 4, 2, 1, 
  | 3, 5, 4, 2, 1, 
  | 3, 4, 5, 2, 1, 
  | 3, 4, 2, 5, 1, 
  | 3, 4, 2, 1, 5, 
  | 5, 3, 2, 4, 1, 
  | 3, 5, 2, 4, 1, 
  | 3, 2, 5, 4, 1, 
  | 3, 2, 4, 5, 1, 
  | 3, 2, 4, 1, 5, 
  | 5, 3, 2, 1, 4, 
  | 3, 5, 2, 1, 4, 
  | 3, 2, 5, 1, 4, 
  | 3, 2, 1, 5, 4, 
  | 3, 2, 1, 4, 5, 
  | 5, 4, 2, 3, 1, 
  | 4, 5, 2, 3, 1, 
  | 4, 2, 5, 3, 1, 
  | 4, 2, 3, 5, 1, 
  | 4, 2, 3, 1, 5, 
  | 5, 2, 4, 3, 1, 
  | 2, 5, 4, 3, 1, 
  | 2, 4, 5, 3, 1, 
  | 2, 4, 3, 5, 1, 
  | 2, 4, 3, 1, 5, 
  | 5, 2, 3, 4, 1, 
  | 2, 5, 3, 4, 1, 
  | 2, 3, 5, 4, 1, 
  | 2, 3, 4, 5, 1, 
  | 2, 3, 4, 1, 5, 
  | 5, 2, 3, 1, 4, 
  | 2, 5, 3, 1, 4, 
  | 2, 3, 5, 1, 4, 
  | 2, 3, 1, 5, 4, 
  | 2, 3, 1, 4, 5, 
  | 5, 4, 2, 1, 3, 
  | 4, 5, 2, 1, 3, 
  | 4, 2, 5, 1, 3, 
  | 4, 2, 1, 5, 3, 
  | 4, 2, 1, 3, 5, 
  | 5, 2, 4, 1, 3, 
  | 2, 5, 4, 1, 3, 
  | 2, 4, 5, 1, 3, 
  | 2, 4, 1, 5, 3, 
  | 2, 4, 1, 3, 5, 
  | 5, 2, 1, 4, 3, 
  | 2, 5, 1, 4, 3, 
  | 2, 1, 5, 4, 3, 
  | 2, 1, 4, 5, 3, 
  | 2, 1, 4, 3, 5, 
  | 5, 2, 1, 3, 4, 
  | 2, 5, 1, 3, 4, 
  | 2, 1, 5, 3, 4, 
  | 2, 1, 3, 5, 4, 
  | 2, 1, 3, 4, 5, 
  | 5, 4, 3, 1, 2, 
  | 4, 5, 3, 1, 2, 
  | 4, 3, 5, 1, 2, 
  | 4, 3, 1, 5, 2, 
  | 4, 3, 1, 2, 5, 
  | 5, 3, 4, 1, 2, 
  | 3, 5, 4, 1, 2, 
  | 3, 4, 5, 1, 2, 
  | 3, 4, 1, 5, 2, 
  | 3, 4, 1, 2, 5, 
  | 5, 3, 1, 4, 2, 
  | 3, 5, 1, 4, 2, 
  | 3, 1, 5, 4, 2, 
  | 3, 1, 4, 5, 2, 
  | 3, 1, 4, 2, 5, 
  | 5, 3, 1, 2, 4, 
  | 3, 5, 1, 2, 4, 
  | 3, 1, 5, 2, 4, 
  | 3, 1, 2, 5, 4, 
  | 3, 1, 2, 4, 5, 
  | 5, 4, 1, 3, 2, 
  | 4, 5, 1, 3, 2, 
  | 4, 1, 5, 3, 2, 
  | 4, 1, 3, 5, 2, 
  | 4, 1, 3, 2, 5, 
  | 5, 1, 4, 3, 2, 
  | 1, 5, 4, 3, 2, 
  | 1, 4, 5, 3, 2, 
  | 1, 4, 3, 5, 2, 
  | 1, 4, 3, 2, 5, 
  | 5, 1, 3, 4, 2, 
  | 1, 5, 3, 4, 2, 
  | 1, 3, 5, 4, 2, 
  | 1, 3, 4, 5, 2, 
  | 1, 3, 4, 2, 5, 
  | 5, 1, 3, 2, 4, 
  | 1, 5, 3, 2, 4, 
  | 1, 3, 5, 2, 4, 
  | 1, 3, 2, 5, 4, 
  | 1, 3, 2, 4, 5, 
  | 5, 4, 1, 2, 3, 
  | 4, 5, 1, 2, 3, 
  | 4, 1, 5, 2, 3, 
  | 4, 1, 2, 5, 3, 
  | 4, 1, 2, 3, 5, 
  | 5, 1, 4, 2, 3, 
  | 1, 5, 4, 2, 3, 
  | 1, 4, 5, 2, 3, 
  | 1, 4, 2, 5, 3, 
  | 1, 4, 2, 3, 5, 
  | 5, 1, 2, 4, 3, 
  | 1, 5, 2, 4, 3, 
  | 1, 2, 5, 4, 3, 
  | 1, 2, 4, 5, 3, 
  | 1, 2, 4, 3, 5, 
  | 5, 1, 2, 3, 4, 
  | 1, 5, 2, 3, 4, 
  | 1, 2, 5, 3, 4, 
  | 1, 2, 3, 5, 4, 
  | 1, 2, 3, 4, 5, |];